100 10
758 521
611 592
795 143
764 928
434 571
602 813
351 646
564 577
547 355
535 611
142 948
417 498
626 730
188 591
442 476
530 582
657 636
346 283
514 927
699 189
180 716
173 752
443 494
525 159
439 466
294 587
40 759
397 428
270 239
622 808
260 597
426 544
231 247
330 341
397 638
518 495
265 608
448 589
414 575
449 708
155 715
535 869
409 638
675 519
581 642
313 700
463 589
470 569
455 395
368 507
642 599
302 730
672 814
713 592
352 558
453 697
875 422
538 550
198 446
346 705
683 857
325 594
322 414
300 547
209 410
388 489
471 457
716 453
561 783
614 557
91 742
260 265
499 681
267 425
609 429
342 439
770 726
741 593
121 402
547 512
240 610
267 736
542 639
477 405
537 722
675 791
517 639
534 517
316 648
744 672
524 385
475 452
204 825
564 340
645 709
313 386
411 633
398 647
531 473
116 503
